Version identifier: 22.1.0.0 | 2022-03-09 | 1a383f8ce
CPXPARAM_Preprocessing_Presolve                  0
CPXPARAM_Read_DataCheck                          1
Legacy callback                                  i

Iteration log . . .
Iteration:     1   Dual objective     =         19715.636364
Version identifier: 22.1.0.0 | 2022-03-09 | 1a383f8ce
CPXPARAM_Preprocessing_Presolve                  0
CPXPARAM_Read_DataCheck                          1
Legacy callback                                  i

Iteration log . . .
Iteration:     1   Dual objective     =         14129.732653
Version identifier: 22.1.0.0 | 2022-03-09 | 1a383f8ce
CPXPARAM_Preprocessing_Presolve                  0
CPXPARAM_Read_DataCheck                          1
Legacy callback                                  i

Iteration log . . .
Iteration:     1   Dual objective     =         10909.784343
Version identifier: 22.1.0.0 | 2022-03-09 | 1a383f8ce
CPXPARAM_Preprocessing_Presolve                  0
CPXPARAM_Read_DataCheck                          1
Legacy callback                                  i

Iteration log . . .
Iteration:     1   Dual objective     =          9872.837184
Version identifier: 22.1.0.0 | 2022-03-09 | 1a383f8ce
CPXPARAM_Preprocessing_Presolve                  0
CPXPARAM_Read_DataCheck                          1
Legacy callback                                  i

Iteration log . . .
Iteration:     1   Dual objective     =          6332.359030
Version identifier: 22.1.0.0 | 2022-03-09 | 1a383f8ce
CPXPARAM_Preprocessing_Presolve                  0
CPXPARAM_Read_DataCheck                          1
Legacy callback                                  i
